p cnf 132 648
-1 -49 0
-1 -50 0
49 -49 0
50 -50 0
-17 -55 0
-17 -56 0
55 -55 0
56 -56 0
-33 -61 0
-33 -62 0
61 -61 0
62 -62 0
-2 -49 0
-2 -50 0
49 -49 0
50 -50 0
-18 -55 0
-18 -56 0
55 -55 0
56 -56 0
-34 -61 0
-34 -62 0
61 -61 0
62 -62 0
3 -67 -49 0
-3 67 -49 0
3 67 -50 0
-3 -67 -50 0
19 -67 -55 0
-19 67 -55 0
19 67 -56 0
-19 -67 -56 0
35 -67 -61 0
-35 67 -61 0
35 67 -62 0
-35 -67 -62 0
4 -49 0
4 -50 0
49 -49 0
50 -50 0
20 -55 0
20 -56 0
55 -55 0
56 -56 0
36 -61 0
36 -62 0
61 -61 0
62 -62 0
5 -49 0
5 -50 0
49 -49 0
50 -50 0
21 -55 0
21 -56 0
55 -55 0
56 -56 0
37 -61 0
37 -62 0
61 -61 0
62 -62 0
6 -49 0
6 -50 0
49 -49 0
50 -50 0
22 -55 0
22 -56 0
55 -55 0
56 -56 0
38 -61 0
38 -62 0
61 -61 0
62 -62 0
7 -49 0
7 -50 0
49 -49 0
50 -50 0
23 -55 0
23 -56 0
55 -55 0
56 -56 0
39 -61 0
39 -62 0
61 -61 0
62 -62 0
8 -49 0
8 -50 0
49 -49 0
50 -50 0
24 -55 0
24 -56 0
55 -55 0
56 -56 0
40 -61 0
40 -62 0
61 -61 0
62 -62 0
9 -49 0
9 -50 0
49 -49 0
50 -50 0
25 -55 0
25 -56 0
55 -55 0
56 -56 0
41 -61 0
41 -62 0
61 -61 0
62 -62 0
10 -49 0
10 -50 0
49 -49 0
50 -50 0
26 -55 0
26 -56 0
55 -55 0
56 -56 0
42 -61 0
42 -62 0
61 -61 0
62 -62 0
11 -49 0
11 -50 0
49 -49 0
50 -50 0
27 -55 0
27 -56 0
55 -55 0
56 -56 0
43 -61 0
43 -62 0
61 -61 0
62 -62 0
12 -49 0
12 -50 0
49 -49 0
50 -50 0
28 -55 0
28 -56 0
55 -55 0
56 -56 0
44 -61 0
44 -62 0
61 -61 0
62 -62 0
-13 -49 0
-13 -50 0
49 -49 0
50 -50 0
-29 -55 0
-29 -56 0
55 -55 0
56 -56 0
-45 -61 0
-45 -62 0
61 -61 0
62 -62 0
-14 -49 0
-14 -50 0
49 -49 0
50 -50 0
-30 -55 0
-30 -56 0
55 -55 0
56 -56 0
-46 -61 0
-46 -62 0
61 -61 0
62 -62 0
15 -49 0
15 -50 0
49 -49 0
50 -50 0
31 -55 0
31 -56 0
55 -55 0
56 -56 0
47 -61 0
47 -62 0
61 -61 0
62 -62 0
-16 -49 0
-16 -50 0
49 -49 0
50 -50 0
-32 -55 0
-32 -56 0
55 -55 0
56 -56 0
-48 -61 0
-48 -62 0
61 -61 0
62 -62 0
-115 49 0
115 -49 0
-116 50 0
115 -50 0
-115 -49 0
-116 -50 0
-121 49 115 0
121 -49 0
121 -115 0
-122 50 116 0
122 -50 0
122 -116 0
-121 -55 0
-122 -56 0
-127 55 121 0
127 -55 0
127 -121 0
-128 56 122 0
128 -56 0
128 -122 0
-127 -61 0
-128 -62 0
127 0
128 0
-1 -51 0
-1 -52 0
51 -51 0
52 -52 0
-17 -57 0
-17 -58 0
57 -57 0
58 -58 0
-33 -63 0
-33 -64 0
63 -63 0
64 -64 0
-2 -51 0
-2 -52 0
51 -51 0
52 -52 0
-18 -57 0
-18 -58 0
57 -57 0
58 -58 0
-34 -63 0
-34 -64 0
63 -63 0
64 -64 0
3 -68 -51 0
-3 68 -51 0
3 68 -52 0
-3 -68 -52 0
19 -68 -57 0
-19 68 -57 0
19 68 -58 0
-19 -68 -58 0
35 -68 -63 0
-35 68 -63 0
35 68 -64 0
-35 -68 -64 0
4 -51 0
4 -52 0
51 -51 0
52 -52 0
20 -57 0
20 -58 0
57 -57 0
58 -58 0
36 -63 0
36 -64 0
63 -63 0
64 -64 0
5 -51 0
5 -52 0
51 -51 0
52 -52 0
21 -57 0
21 -58 0
57 -57 0
58 -58 0
37 -63 0
37 -64 0
63 -63 0
64 -64 0
6 -69 -51 0
-6 69 -51 0
6 69 -52 0
-6 -69 -52 0
22 -69 -57 0
-22 69 -57 0
22 69 -58 0
-22 -69 -58 0
38 -69 -63 0
-38 69 -63 0
38 69 -64 0
-38 -69 -64 0
7 -51 0
7 -52 0
51 -51 0
52 -52 0
23 -57 0
23 -58 0
57 -57 0
58 -58 0
39 -63 0
39 -64 0
63 -63 0
64 -64 0
8 -51 0
8 -52 0
51 -51 0
52 -52 0
24 -57 0
24 -58 0
57 -57 0
58 -58 0
40 -63 0
40 -64 0
63 -63 0
64 -64 0
9 -70 -51 0
-9 70 -51 0
9 70 -52 0
-9 -70 -52 0
25 -70 -57 0
-25 70 -57 0
25 70 -58 0
-25 -70 -58 0
41 -70 -63 0
-41 70 -63 0
41 70 -64 0
-41 -70 -64 0
10 -51 0
10 -52 0
51 -51 0
52 -52 0
26 -57 0
26 -58 0
57 -57 0
58 -58 0
42 -63 0
42 -64 0
63 -63 0
64 -64 0
11 -51 0
11 -52 0
51 -51 0
52 -52 0
27 -57 0
27 -58 0
57 -57 0
58 -58 0
43 -63 0
43 -64 0
63 -63 0
64 -64 0
12 -51 0
12 -52 0
51 -51 0
52 -52 0
28 -57 0
28 -58 0
57 -57 0
58 -58 0
44 -63 0
44 -64 0
63 -63 0
64 -64 0
13 -71 -51 0
-13 71 -51 0
13 71 -52 0
-13 -71 -52 0
29 -71 -57 0
-29 71 -57 0
29 71 -58 0
-29 -71 -58 0
45 -71 -63 0
-45 71 -63 0
45 71 -64 0
-45 -71 -64 0
14 -72 -51 0
-14 72 -51 0
14 72 -52 0
-14 -72 -52 0
30 -72 -57 0
-30 72 -57 0
30 72 -58 0
-30 -72 -58 0
46 -72 -63 0
-46 72 -63 0
46 72 -64 0
-46 -72 -64 0
15 -51 0
15 -52 0
51 -51 0
52 -52 0
31 -57 0
31 -58 0
57 -57 0
58 -58 0
47 -63 0
47 -64 0
63 -63 0
64 -64 0
16 -73 -51 0
-16 73 -51 0
16 73 -52 0
-16 -73 -52 0
32 -73 -57 0
-32 73 -57 0
32 73 -58 0
-32 -73 -58 0
48 -73 -63 0
-48 73 -63 0
48 73 -64 0
-48 -73 -64 0
-117 51 0
117 -51 0
-118 52 0
117 -52 0
-117 -51 0
-118 -52 0
-123 51 117 0
123 -51 0
123 -117 0
-124 52 118 0
124 -52 0
124 -118 0
-123 -57 0
-124 -58 0
-129 57 123 0
129 -57 0
129 -123 0
-130 58 124 0
130 -58 0
130 -124 0
-129 -63 0
-130 -64 0
129 0
130 0
1 -74 -53 0
-1 74 -53 0
1 74 -54 0
-1 -74 -54 0
17 -74 -59 0
-17 74 -59 0
17 74 -60 0
-17 -74 -60 0
33 -74 -65 0
-33 74 -65 0
33 74 -66 0
-33 -74 -66 0
2 -75 -53 0
-2 75 -53 0
2 75 -54 0
-2 -75 -54 0
18 -75 -59 0
-18 75 -59 0
18 75 -60 0
-18 -75 -60 0
34 -75 -65 0
-34 75 -65 0
34 75 -66 0
-34 -75 -66 0
-3 -53 0
-3 -54 0
53 -53 0
54 -54 0
-19 -59 0
-19 -60 0
59 -59 0
60 -60 0
-35 -65 0
-35 -66 0
65 -65 0
66 -66 0
4 -76 -53 0
-4 76 -53 0
4 76 -54 0
-4 -76 -54 0
20 -76 -59 0
-20 76 -59 0
20 76 -60 0
-20 -76 -60 0
36 -76 -65 0
-36 76 -65 0
36 76 -66 0
-36 -76 -66 0
5 -53 0
5 -54 0
53 -53 0
54 -54 0
21 -59 0
21 -60 0
59 -59 0
60 -60 0
37 -65 0
37 -66 0
65 -65 0
66 -66 0
6 -53 0
6 -54 0
53 -53 0
54 -54 0
22 -59 0
22 -60 0
59 -59 0
60 -60 0
38 -65 0
38 -66 0
65 -65 0
66 -66 0
7 -53 0
7 -54 0
53 -53 0
54 -54 0
23 -59 0
23 -60 0
59 -59 0
60 -60 0
39 -65 0
39 -66 0
65 -65 0
66 -66 0
8 -53 0
8 -54 0
53 -53 0
54 -54 0
24 -59 0
24 -60 0
59 -59 0
60 -60 0
40 -65 0
40 -66 0
65 -65 0
66 -66 0
9 -53 0
9 -54 0
53 -53 0
54 -54 0
25 -59 0
25 -60 0
59 -59 0
60 -60 0
41 -65 0
41 -66 0
65 -65 0
66 -66 0
10 -53 0
10 -54 0
53 -53 0
54 -54 0
26 -59 0
26 -60 0
59 -59 0
60 -60 0
42 -65 0
42 -66 0
65 -65 0
66 -66 0
11 -53 0
11 -54 0
53 -53 0
54 -54 0
27 -59 0
27 -60 0
59 -59 0
60 -60 0
43 -65 0
43 -66 0
65 -65 0
66 -66 0
12 -53 0
12 -54 0
53 -53 0
54 -54 0
28 -59 0
28 -60 0
59 -59 0
60 -60 0
44 -65 0
44 -66 0
65 -65 0
66 -66 0
13 -77 -53 0
-13 77 -53 0
13 77 -54 0
-13 -77 -54 0
29 -77 -59 0
-29 77 -59 0
29 77 -60 0
-29 -77 -60 0
45 -77 -65 0
-45 77 -65 0
45 77 -66 0
-45 -77 -66 0
14 -78 -53 0
-14 78 -53 0
14 78 -54 0
-14 -78 -54 0
30 -78 -59 0
-30 78 -59 0
30 78 -60 0
-30 -78 -60 0
46 -78 -65 0
-46 78 -65 0
46 78 -66 0
-46 -78 -66 0
15 -79 -53 0
-15 79 -53 0
15 79 -54 0
-15 -79 -54 0
31 -79 -59 0
-31 79 -59 0
31 79 -60 0
-31 -79 -60 0
47 -79 -65 0
-47 79 -65 0
47 79 -66 0
-47 -79 -66 0
16 -80 -53 0
-16 80 -53 0
16 80 -54 0
-16 -80 -54 0
32 -80 -59 0
-32 80 -59 0
32 80 -60 0
-32 -80 -60 0
48 -80 -65 0
-48 80 -65 0
48 80 -66 0
-48 -80 -66 0
-119 53 0
119 -53 0
-120 54 0
119 -54 0
-119 -53 0
-120 -54 0
-125 53 119 0
125 -53 0
125 -119 0
-126 54 120 0
126 -54 0
126 -120 0
-125 -59 0
-126 -60 0
-131 59 125 0
131 -59 0
131 -125 0
-132 60 126 0
132 -60 0
132 -126 0
-131 -65 0
-132 -66 0
131 0
132 0
